40 115
18 34
28 39
18 25 29 33
5 19 33
18 20 23 34 39
3 11 12 13 20 22 24 25 32 33
10 22 28
16 25
10 11 13 14 18 28 36
14 20 25 31 34 37
6 8 23 26 30 37 39
5 8 19 21 23 28 32 36 39
5 16 20 28 39
5 8 25 33 35 38
8 9 24 34 35 38
36
7 12 24 26 31
19 27 38 39
0 2 4 8 19 20 27 28 34
3 11 17 18 29 37
4 5 9 12 18 21 39
11 20 22 26 35
5 6 21 25 29 30 31 36 38 39
4 10 11 25
5 14 16 26 29 34 38
2 5 7 9 13 22 23 32 34
10 16 21 24 33
17 18 35
1 6 8 11 12 18 34
2 19 22 24 33 34 37
10 22 31
9 16 22 30 34 38
5 11 25 34
2 3 5 13 26 29 39
0 4 9 14 18 24 25 28 29 31 32 35 36
13 14 21 27 34 38
8 11 15 22 34
9 10 19 29
13 14 17 22 24 31 35
1 4 10 11 12 17 20 22 33
